%mem=30GB
%nproc=8
#P LC-wHPBE/TZVP iop(3/107=0328100000, 3/108=0328100000) scf=(conver=6,fermi,ndamp=35,noincfock,novaracc,vshift=500,xqc)

H19 C24 N1

0 1
C 6.129184 1.201496 -0.030856
C 6.830271 0.000001 0.000182
C 4.738958 1.200713 -0.032197
C 6.129235 -1.201473 0.031153
C 4.021751 -0.000032 0.000031
C 4.738962 -1.200719 0.032361
H 7.919539 0.000045 0.000190
H 4.198073 2.145454 -0.081149
H 6.668779 -2.147537 0.063412
H 4.198148 -2.145504 0.081256
C 2.536892 -0.000014 -0.000063
C 1.813363 -0.924286 -0.760077
C 1.813258 0.924290 0.759786
C 0.426027 -0.922473 -0.771159
C 0.425899 0.922498 0.770636
C -0.288344 0.000018 -0.000311
H 2.347573 -1.638662 -1.386050
H 2.347350 1.638674 1.385851
H -0.115370 -1.638494 -1.387158
H -0.115571 1.638578 1.386504
H 6.668762 2.147543 -0.063006
N -1.704382 -0.000003 -0.000499
C -2.414266 1.227770 0.004035
C -3.559402 1.382015 0.792108
C -1.979956 2.301413 -0.780170
C -4.257371 2.583383 0.786193
C -2.673527 3.505213 -0.765830
C -3.817854 3.653503 0.012423
H -3.900046 0.551242 1.407814
H -1.092486 2.185578 -1.400082
H -5.147916 2.686607 1.405370
H -2.321511 4.331764 -1.382280
H -4.363183 4.595952 0.015664
C -2.414241 -1.227791 -0.004406
C -3.559682 -1.382189 -0.792032
C -1.979686 -2.301249 0.779869
C -4.257673 -2.583532 -0.785597
C -2.673287 -3.505060 0.766028
C -3.817885 -3.653507 -0.011769
H -3.900521 -0.551523 -1.407763
H -1.092008 -2.185299 1.399468
H -5.148466 -2.686887 -1.404399
H -2.321010 -4.331477 1.382521
H -4.363223 -4.595951 -0.014691



