%mem=30GB
%nproc=8
#P LC-wHPBE/TZVP iop(3/107=0402700000, 3/108=0402700000) opt

H10 C12 S2

0 1
C -0.645614 0.033938 -4.020401
C -0.642922 -0.039461 -2.508525
S -0.619807 -1.184362 -1.826185
C -0.628160 1.261890 -1.810652
C -0.618823 0.003239 0.315159
C -0.682697 -1.271383 -0.439061
C -0.701717 1.200425 -4.674263
C -0.673862 2.413684 -2.564496
H -0.894509 2.260758 0.153069
C -0.678836 -0.037160 1.694006
C -0.607285 -2.431794 0.336215
C -0.620452 -2.422723 1.660132
C -0.668050 -1.146831 2.373599
H -0.611062 0.923757 2.262783
H -0.668990 -3.389496 -0.258602
H -0.607738 -3.347482 2.240442
H -0.618035 -1.166993 3.513253
C -0.700284 2.445364 -3.962655
H -0.608778 -0.936755 -4.538082
H -0.633548 -2.121328 -2.360163
H -0.607389 1.171702 -5.752434
H -0.627667 3.433916 -2.057473
H -0.678632 3.361252 -4.568157
S -0.756949 1.237610 -0.418197



