%mem=30GB
%nproc=8
#P LC-wHPBE/TZVP iop(3/107=0242700000, 3/108=0242700000) opt

H19 C24 N1

0 1
C -0.031489 0.006731 -1.554728
C -1.228424 -0.032428 -0.824058
C 1.171641 -0.025480 -0.766950
C -1.172321 0.013837 0.565076
C 1.181747 0.005885 0.556250
C -0.027852 0.014218 1.264517
H -2.170869 0.039516 -1.310622
H 2.111561 0.032578 -1.322086
H -2.133902 0.031933 1.172319
H 0.013928 -0.046794 2.378747
C 2.520813 -0.039905 1.342206
C 2.598339 0.025011 2.803271
C 3.807510 0.014114 0.698591
C 3.747044 -0.029841 3.452613
C 4.995413 -0.021092 1.318251
C 4.988207 -0.021567 2.801013
H 1.646490 0.039446 3.289868
H 3.743291 0.002195 -0.370235
H 3.791544 -0.049779 4.541053
H 5.944512 0.029626 0.831471
H 0.035757 0.018005 -2.626431
N 6.146527 -0.049665 3.538226
C 7.417788 -0.087689 2.815500
C 8.306335 -1.131274 3.022295
C 7.747287 0.847635 1.802690
C 9.447364 -1.305665 2.359219
C 8.889255 0.709944 1.036290
C 9.776678 -0.381372 1.327497
H 8.088720 -1.914312 3.854760
H 7.000747 1.602705 1.549124
H 10.132724 -2.072291 2.591704
H 9.158212 1.391682 0.334038
H 10.752054 -0.413711 0.830926
C 6.054595 -0.919752 4.700303
C 6.946354 -0.735753 5.811199
C 5.237666 -1.972954 4.732374
C 6.949252 -1.645101 6.908689
C 5.225159 -2.868673 5.844154
C 6.083516 -2.629314 6.907243
H 7.654151 0.100110 5.748187
H 4.474189 -2.144047 3.896846
H 7.641110 -1.463794 7.745229
H 4.489904 -3.654089 5.901390
H 6.009722 -3.351514 7.725314



