%mem=30GB
%nproc=8
#P LC-wHPBE/TZVP iop(3/107=0117500000, 3/108=0117500000) opt

H10 C12

0 1
C -0.013461 -0.047576 -1.509037
C -1.233075 0.034550 -0.771062
C 1.246916 0.017199 -0.815351
C -1.172920 -0.025891 0.627666
C 1.193398 -0.047209 0.588647
C 0.045532 0.014476 1.288790
H -2.142548 0.047760 -1.344996
H 2.196723 0.011278 -1.336985
H -2.134655 0.003973 1.089604
H 0.021465 0.035346 2.361426
C 2.535186 0.040026 1.332907
C 2.531940 0.024048 2.767601
C 3.768552 -0.041212 0.643252
C 3.803484 0.008806 3.409643
C 5.003017 -0.041738 1.374944
C 5.029916 0.035284 2.761009
H 1.647588 0.003903 3.369839
H 3.762070 -0.024996 -0.456996
H 3.775441 0.040605 4.515525
H 5.897553 0.047347 0.808617
H 5.915547 -0.044324 3.292264
H 0.023469 -0.033829 -2.568108



