%mem=30GB
%nproc=8
#P LC-wHPBE/TZVP iop(3/107=0291800000, 3/108=0291800000) opt

H19 C24 N1 O2

0 1
C -0.004291 -0.047458 -1.531621
C -1.254095 -0.009158 -0.798151
C 1.202883 -0.005258 -0.744297
C -1.160720 -0.022352 0.600421
C 1.227765 -0.011716 0.643062
C 0.003953 0.013844 1.351413
H -2.136629 0.048311 -1.336764
H 2.173517 0.034206 -1.357756
H -2.102371 -0.015055 1.144081
H 0.009712 -0.013831 2.436588
C 2.578153 -0.032781 1.377418
C 2.545652 -0.004950 2.726718
C 3.732677 0.035388 0.668746
C 3.744064 -0.017749 3.437585
C 4.953752 -0.042247 1.368033
C 4.945931 0.001552 2.745889
H 1.620074 -0.032334 3.351375
H 3.815845 0.007159 -0.404202
H 3.756635 0.038304 4.531831
H 5.884393 0.015175 0.843699
H 0.021398 -0.041977 -2.579743
N 6.142320 -0.036520 3.589948
C 7.383048 -0.148001 2.840105
C 8.269037 -1.136860 3.018912
C 7.761137 0.823861 1.808905
C 9.463489 -1.232359 2.316436
C 8.914341 0.686215 1.129576
C 9.820056 -0.319251 1.313345
H 8.007523 -1.892217 3.807475
H 7.047045 1.664226 1.557137
H 9.158107 1.464781 0.348972
H 10.682500 -0.394497 0.789051
C 6.074202 -0.932703 4.666807
C 7.019069 -0.754916 5.746570
C 5.229919 -1.953589 4.754784
C 7.003139 -1.634150 6.852364
C 5.134047 -2.858408 5.821348
C 6.097872 -2.703953 6.906012
H 7.724490 0.104353 5.734192
H 4.490379 -2.187028 3.909873
H 7.648113 -1.441158 7.745056
H 4.433199 -3.694045 5.832024
O 6.006527 -3.575180 8.001063
H 6.040761 -3.002624 8.852513
O 10.347772 -2.339544 2.600185
H 11.231167 -1.982236 2.945667



