%mem=30GB
%nproc=8
#P LC-wHPBE/TZVP iop(3/107=0095300000, 3/108=0095300000) opt

H21 C19 S2 N2

1 1
C -0.661732 -0.004745 -4.033833
C -0.626987 -0.058805 -2.579224
S -0.637717 -1.240599 -1.784026
C -0.678557 1.258441 -1.806720
C -0.629367 0.005465 0.325826
C -0.651852 -1.194636 -0.459328
C -0.608138 1.205799 -4.673031
C -0.657633 2.411465 -2.630445
H -0.866537 2.196241 0.148941
C -0.614684 0.003447 1.685780
C -0.617895 -2.417887 0.309373
C -0.635034 -2.435831 1.651671
C -0.673524 -1.163856 2.360666
H -0.662556 0.904752 2.277209
H -0.604386 -3.388501 -0.205701
H -0.699806 -3.348320 2.274580
C -0.617336 2.458637 -3.976376
H -0.675561 -0.991361 -4.515151
H -0.633285 -2.141950 -2.325711
H -0.652898 1.192105 -5.804997
H -0.655489 3.410812 -2.103346
H -0.647190 3.401148 -4.501765
S -0.838099 1.280057 -0.415485
C -0.695449 -1.151615 3.759218
C -0.097482 -1.293720 5.084274
C -1.637602 -1.058946 4.933143
N 1.033858 -1.487482 6.035945
N -2.971480 -0.957481 5.487748
C 1.890916 -2.634037 5.746777
H 2.125669 -3.180078 6.726118
H 1.288430 -3.378689 5.133756
H 2.778757 -2.411024 5.283509
C 1.861555 -0.184759 6.191103
H 2.140403 -0.081136 7.298587
H 2.750661 -0.312708 5.652678
H 1.308198 0.710954 5.857443
C -3.570384 -2.106947 6.059047
H -4.487931 -2.325469 5.615670
H -2.909297 -3.035637 5.932119
H -3.665266 -1.958760 7.150080
C -3.152993 0.278598 6.302178
H -4.178762 0.658415 6.334259
H -2.842687 0.061863 7.356388
H -2.453417 1.056872 5.989212



