%mem=30GB
%nproc=8
#P LC-wHPBE/TZVP iop(3/107=0328100000, 3/108=0328100000) scf=(conver=6,fermi,ndamp=35,noincfock,novaracc,vshift=500,xqc)

H18 C9 N3

2 2
C -0.610862 0.510880 0.000115
C -0.136805 -0.784324 0.000118
N -1.625284 1.358829 0.000149
N -0.364248 -2.086765 0.000256
C -1.430247 2.779535 -0.245115
H -1.514482 3.356239 0.681778
H -0.453085 2.953583 -0.694570
H -2.189123 3.132424 -0.948067
C -2.988895 0.914734 0.244915
H -3.471630 1.599951 0.946347
H -3.570653 0.893667 -0.682419
H -2.986873 -0.077069 0.695991
C 0.701968 -3.045906 0.244739
H 1.009895 -3.540090 -0.682520
H 1.560610 -2.548225 0.694397
H 0.350361 -3.805818 0.947208
C -1.692259 -2.627901 -0.244928
H -1.618712 -3.461412 -0.948079
H -2.149477 -2.989362 0.681963
H -2.331523 -1.868430 -0.694010
C 0.747831 0.273810 0.000062
N 1.989493 0.728067 -0.000089
C 2.287295 2.130832 0.245062
H 2.563599 2.644356 -0.681638
H 1.426241 2.626112 0.692731
H 3.119706 2.205914 0.949371
C 3.122069 -0.151615 -0.245030
H 3.807758 0.329200 -0.947323
H 3.663007 -0.367678 0.682084
H 2.784087 -1.084552 -0.695089



