%mem=30GB
%nproc=8
#P LC-wHPBE/TZVP iop(3/107=0328100000, 3/108=0328100000) scf=(conver=6,fermi,ndamp=35,noincfock,novaracc,vshift=500,xqc)

H21 C21 N1 O3

1 2
N 0.054086 0.063852 0.077784
C -0.275154 -1.311734 0.103506
C -1.260864 -1.827996 -0.723750
C 0.386135 -2.184815 0.970218
C -1.598384 -3.175646 -0.688444
C 0.074577 -3.526309 0.994438
C -0.925200 -4.034430 0.167909
H -1.784639 -1.164375 -1.405148
H 1.158634 -1.797039 1.627427
H -2.379444 -3.537517 -1.347421
H 0.588853 -4.206820 1.665799
C -0.970368 1.034170 -0.019727
C -2.134785 0.917606 0.724871
C -0.835797 2.133662 -0.869883
C -3.151989 1.858174 0.623575
C -1.829782 3.083912 -0.958163
C -3.000537 2.952781 -0.215611
H -2.255494 0.070396 1.393250
H 0.067507 2.240735 -1.462783
H -4.048238 1.726664 1.219136
H -1.725247 3.941045 -1.615932
O -3.928451 3.936733 -0.380204
C -5.121818 3.840279 0.365278
H -5.681122 2.930406 0.115451
H -4.925953 3.859223 1.444250
H -5.719912 4.710924 0.096466
O -1.168220 -5.370782 0.273837
C -2.170458 -5.919715 -0.552884
H -3.151070 -5.472720 -0.348812
H -1.930216 -5.794070 -1.615623
H -2.208576 -6.983730 -0.319613
C 1.409258 0.466483 0.091838
C 2.372325 -0.232608 -0.620224
C 1.812213 1.581496 0.830640
C 3.707828 0.150754 -0.593850
C 3.129962 1.982235 0.842322
C 4.092694 1.267169 0.133583
H 2.078678 -1.100647 -1.202616
H 1.073246 2.139336 1.397822
H 4.429565 -0.427688 -1.159301
H 3.443945 2.849999 1.413878
O 5.369584 1.734982 0.218075
C 6.368506 1.037347 -0.492266
H 6.460713 0.000867 -0.145468
H 6.173119 1.041208 -1.571513
H 7.303574 1.562498 -0.297656



