%mem=30GB
%nproc=8
#P LC-wHPBE/TZVP iop(3/107=0448700000, 3/108=0448700000) opt

H32 C26 N4

2 1
C -2.280177 0.389791 -2.670552
C -3.442771 0.395845 -1.893004
C -1.093128 0.393475 -1.947822
C -3.491706 0.348801 -0.504767
C -1.102766 0.440280 -0.523816
C -2.292926 0.408947 0.246758
H -0.169401 0.435441 -2.421880
H -4.422242 0.387274 0.078238
H -2.262990 0.432933 1.311529
C 0.283912 0.371885 0.288395
C 0.283082 0.376995 1.705603
C 1.446419 0.365318 -0.419601
C 1.451174 0.401585 2.339592
C 2.643724 0.396436 0.266882
C 2.735402 0.434734 1.630100
H -0.608923 0.388464 2.247949
H 1.464243 0.367025 -1.554575
H 1.528748 0.358430 3.442969
H 3.629443 0.370741 -0.258221
H -2.247376 0.376106 -3.681794
C 3.753988 0.254571 2.315146
C 5.079471 0.646412 2.976051
C 4.627825 -0.738619 2.956087
N 6.147821 1.648883 3.342188
N 4.811399 -2.202220 3.234658
C 6.600133 2.505739 2.233926
H 7.706628 2.669342 2.195849
H 6.261438 2.077538 1.197590
H 6.161063 3.498621 2.226426
C 5.830547 2.488550 4.464022
H 6.720862 2.620255 5.113662
H 5.407251 3.463196 4.257584
H 5.021480 1.938084 5.088535
C 5.845993 -2.830026 2.435985
H 5.486481 -3.700415 1.935433
H 6.273619 -2.206810 1.611050
H 6.739447 -3.174780 2.977980
C 5.021267 -2.526104 4.658512
H 4.731404 -3.452946 4.881241
H 6.060033 -2.424310 4.954542
H 4.418308 -1.770933 5.303810
C -4.665413 0.552766 -2.777459
C -5.812130 0.036428 -3.567442
C -5.599454 1.537294 -3.369757
N -6.483044 -1.069663 -4.241258
N -6.063535 2.917568 -3.598009
C -5.669512 -1.986928 -4.973828
H -6.135630 -2.262436 -5.924281
H -4.681619 -1.554733 -5.204721
H -5.480462 -2.913175 -4.480464
C -7.402513 -1.787019 -3.338555
H -8.418368 -2.065440 -3.808580
H -6.932008 -2.747319 -2.981252
H -7.644417 -1.270702 -2.463258
C -5.761446 3.377264 -4.987517
H -5.267464 4.317215 -5.010585
H -5.218948 2.645237 -5.612538
H -6.780314 3.560945 -5.500108
C -7.415642 3.180482 -3.241662
H -7.531950 4.206142 -2.930038
H -8.170284 2.983779 -4.011648
H -7.697911 2.611836 -2.354613



