%mem=30GB
%nproc=8
#P LC-wHPBE/TZVP iop(3/107=0190700000, 3/108=0190700000) scf=(conver=6,fermi,ndamp=35,noincfock,novaracc,vshift=500,xqc)

H32 C26 S2 N4

2 1
C -2.928949 -0.209586 -0.466429
C -1.563914 -0.061175 -0.303790
S -0.549634 -0.929940 -1.465043
C -1.080492 0.744795 0.706590
C 1.720975 -1.178026 0.124019
C 1.104728 -0.556786 -0.961278
C -3.804439 0.453059 0.373760
C -1.957571 1.398720 1.546095
H -0.017059 0.867388 0.843825
C 3.055310 -0.905897 0.375396
C 1.834379 0.303673 -1.763498
C 3.157322 0.570140 -1.506853
C 3.772824 -0.043708 -0.429435
H 3.535939 -1.385849 1.215765
H 1.346414 0.763075 -2.610001
H 3.711030 1.227115 -2.160412
C -3.316329 1.262630 1.386512
H -3.309964 -0.825983 -1.268943
H -0.121390 -2.546838 0.437504
H -1.570409 2.020933 2.339064
H -3.993957 1.766527 2.059405
S 0.923466 -2.279512 1.229412
C 5.179371 0.186625 -0.159910
C 6.258258 1.013194 -0.194238
C 6.373984 -0.291545 0.281001
N 6.778879 2.172200 -0.466391
N 7.085837 -1.264246 0.765069
C 5.943792 3.274283 -0.907684
H 6.187951 3.545500 -1.931936
H 4.898805 2.994168 -0.846509
H 6.108951 4.134804 -0.264794
C 8.194976 2.451187 -0.318309
H 8.537142 3.011091 -1.183702
H 8.380874 3.039067 0.577705
H 8.758216 1.527533 -0.273817
C 6.515968 -2.589608 0.931428
H 6.460524 -2.846499 1.986434
H 5.524243 -2.624805 0.496396
H 7.140387 -3.318442 0.421721
C 8.484929 -1.112006 1.118438
H 8.667734 -1.621246 2.059984
H 9.125917 -1.545202 0.353886
H 8.728287 -0.065327 1.252120
C -5.234909 0.301436 0.192555
C -6.482207 0.837696 0.274291
C -6.296202 -0.469144 -0.166373
N -7.258316 1.842942 0.551570
N -6.771609 -1.601745 -0.593499
C -6.699705 3.135271 0.904858
H -6.943427 3.382636 1.935256
H -5.623434 3.119821 0.780416
H -7.111169 3.899344 0.250646
C -8.704916 1.757804 0.486526
H -9.127537 2.257490 1.353238
H -9.080352 2.238157 -0.414316
H -9.022841 0.722915 0.509579
C -5.902929 -2.750782 -0.768792
H -5.850729 -3.027562 -1.819029
H -4.908582 -2.521281 -0.404440
H -6.292204 -3.591280 -0.200176
C -8.181475 -1.806186 -0.866823
H -8.283723 -2.375263 -1.786100
H -8.657299 -2.356258 -0.057912
H -8.679880 -0.854950 -1.006340



