%mem=30GB
%nproc=8
#P LC-wHPBE/TZVP iop(3/107=0281800000, 3/108=0281800000) opt

H28 C36 N2

0 1
C -0.126150 -0.392614 -1.420271
C -1.116460 0.396515 -0.919501
C 1.134667 -0.424944 -0.677686
C -1.017480 1.153551 0.329035
C 1.257298 0.291000 0.584820
C 0.206937 1.094232 1.060622
H 1.923485 -1.086078 -1.052257
H -1.820767 1.754491 0.615091
H 0.327000 1.581401 1.939803
C 2.559630 0.150163 1.282495
C 2.750694 0.908750 2.476035
C 3.648636 -0.586780 0.828682
C 3.956638 0.752172 3.241293
C 4.807274 -0.666372 1.582513
C 5.006237 0.050006 2.762812
H 1.941512 1.500538 2.850196
H 3.504547 -1.145397 -0.029772
H 4.079955 1.404375 4.136971
H 5.675780 -1.323637 1.212512
H -0.235258 -0.951323 -2.343255
N 6.161580 -0.016247 3.517822
C 7.336766 -0.136415 2.795868
C 8.251132 -1.131584 3.059285
C 7.741381 0.844566 1.774699
C 9.441572 -1.242931 2.350447
C 8.917619 0.745868 1.062505
C 9.818732 -0.329194 1.308423
H 8.058874 -1.924718 3.863528
H 7.078001 1.612779 1.579246
H 10.144541 -2.056006 2.524237
H 9.090211 1.428678 0.304645
H 10.737141 -0.444134 0.836322
C 6.119210 -0.963339 4.723688
C 6.991390 -0.724383 5.738329
C 5.167564 -1.990337 4.717748
C 6.953708 -1.658625 6.887002
C 5.197280 -2.889460 5.814349
C 6.076671 -2.685065 6.867542
H 7.670150 0.120076 5.770320
H 4.499685 -2.191077 3.912298
H 7.679451 -1.441247 7.656432
H 4.511726 -3.663390 5.853906
H 6.022972 -3.312656 7.733379
N -2.326646 0.801105 -1.628418
C -2.496104 2.272482 -1.938590
C -3.551498 3.041142 -1.467514
C -1.437901 2.897320 -2.717373
C -3.570663 4.364782 -1.686431
C -1.549338 4.262270 -3.039758
C -2.650707 5.035400 -2.496391
H -4.309473 2.517260 -0.809677
H -0.605506 2.302685 -3.106995
H -4.458425 4.988435 -1.367711
H -0.811085 4.655323 -3.596938
H -2.660178 6.024798 -2.762010
C -3.597696 0.340262 -0.964840
C -4.836989 0.256288 -1.768366
C -3.659135 -0.117855 0.362237
C -5.955987 -0.185645 -1.177837
C -4.804865 -0.566658 0.936064
C -5.945477 -0.640218 0.186415
H -4.869781 0.610046 -2.732787
H -2.725953 -0.134059 0.954064
H -6.872632 -0.202552 -1.695772
H -4.822110 -0.912802 1.933394
H -6.930733 -1.030922 0.595450



