%mem=30GB
%nproc=8
#P LC-wHPBE/TZVP iop(3/107=0365200000, 3/108=0365200000) opt

H28 C36 S2 N2

0 1
C 0.427999 0.615889 -3.673421
C 0.144317 0.503641 -2.270096
S 0.161017 -0.765944 -1.726510
C -0.173270 1.686904 -1.559873
C -0.393227 0.323340 0.449627
C -0.107605 -0.895546 -0.362789
C 0.466619 1.897773 -4.270153
C -0.140368 2.921717 -2.230112
H -0.891380 2.400324 0.410853
C -0.687394 0.114073 1.811203
C -0.122446 -2.184955 0.355045
C -0.359629 -2.256803 1.632193
C -0.643451 -1.069138 2.451259
H -0.914570 1.033078 2.405186
H 0.185836 -3.092213 -0.262484
H -0.317518 -3.218622 2.191156
C 0.090384 3.085447 -3.525987
H 0.667342 -0.196253 -4.319292
H 0.418643 -1.692249 -2.284891
H -0.342898 3.857214 -1.591112
H 0.111992 4.049020 -3.965521
S -0.582286 1.511793 -0.214785
N -0.942719 -1.303234 3.867000
C 0.067550 -2.035226 4.585915
C -0.348589 -3.233832 5.305435
C 1.424018 -1.684227 4.671292
C 0.573504 -4.080123 5.957937
C 2.386741 -2.526258 5.345871
C 1.931282 -3.695836 5.946602
H -1.361178 -3.594497 5.270750
H 1.758674 -0.775287 4.112348
H 0.264096 -4.984629 6.440716
H 3.362859 -2.202390 5.303757
H 2.688755 -4.256672 6.476829
C -2.280706 -1.650688 4.205305
C -2.825069 -1.481201 5.432616
C -3.065028 -2.221420 3.182761
C -4.126185 -1.874281 5.735125
C -4.377043 -2.608821 3.460930
C -4.970678 -2.495430 4.694517
H -2.271572 -1.074581 6.257726
H -2.666343 -2.355381 2.147007
H -4.496059 -1.808116 6.743866
H -4.977920 -3.054736 2.657962
H -5.991032 -2.813788 4.920636
N 0.777189 2.032306 -5.657254
C 1.523256 3.217322 -5.980251
C 0.966273 4.074409 -6.957906
C 2.745867 3.501422 -5.458692
C 1.710721 5.280658 -7.293749
C 3.389282 4.636122 -5.755631
C 2.961470 5.567578 -6.702805
H 0.019019 3.887812 -7.435589
H 3.143206 2.877899 -4.655699
H 1.330908 5.943621 -8.043446
H 4.336872 4.877366 -5.285813
H 3.439876 6.461875 -6.978601
C -0.319831 1.735387 -6.616848
C -0.073880 1.436879 -7.935505
C -1.659405 1.835101 -6.117268
C -1.196587 1.220160 -8.782625
C -2.723746 1.566821 -7.068140
C -2.447935 1.260950 -8.376227
H 0.918884 1.362361 -8.338165
H -1.939304 2.099261 -5.107740
H -0.980416 0.893745 -9.868373
H -3.804249 1.632839 -6.703022
H -3.358678 1.092086 -9.080235



