%mem=30GB
%nproc=8
#P LC-wHPBE/TZVP iop(3/107=0492900000, 3/108=0492900000) opt

H32 C26 S2 N4

2 1
C -0.618094 0.034659 -3.987445
C -0.649639 0.024973 -2.548985
S -0.612094 -1.200099 -1.809264
C -0.655450 1.271325 -1.872930
C -0.635943 0.028081 0.240228
C -0.649327 -1.197074 -0.461695
C -0.649259 1.214384 -4.710176
C -0.647972 2.405992 -2.568226
H -0.940836 2.216105 0.208599
C -0.613431 0.013163 1.742500
C -0.607952 -2.427869 0.327865
C -0.639706 -2.412081 1.742650
C -0.644240 -1.176470 2.448872
H -0.695438 0.960452 2.226664
H -0.652013 -3.400613 -0.161825
H -0.647719 -3.331503 2.298958
C -0.691632 2.438362 -3.934434
H -0.604894 -0.953342 -4.512952
H -0.691723 -2.135372 -2.373385
H -0.629211 3.391127 -2.100687
H -0.649771 3.307572 -4.527731
S -0.757176 1.247454 -0.414585
C -0.748412 -1.192991 3.807204
C -0.072351 -1.300421 5.128571
C -1.581678 -1.124820 4.891065
N 0.994825 -1.417096 6.003693
N -2.922797 -0.891317 5.434427
C 1.854157 -2.577326 5.778734
H 2.156533 -3.096607 6.735167
H 1.287668 -3.325922 5.166508
H 2.786131 -2.320247 5.243947
C 1.826405 -0.270833 6.216751
H 2.174781 -0.117463 7.268649
H 2.794590 -0.301724 5.566658
H 1.356898 0.693777 5.855983
C -3.501399 -2.168773 6.080438
H -4.491599 -2.383858 5.609686
H -2.856628 -3.014923 5.871888
H -3.694621 -2.035077 7.166464
C -3.092978 0.216892 6.341945
H -4.170424 0.573505 6.295305
H -2.894608 0.025628 7.417701
H -2.434722 1.077069 6.008289
C -0.545416 1.377083 -6.066893
C -1.104441 1.620381 -7.420340
C 0.372249 1.340904 -7.163256
N -2.206873 1.889791 -8.267776
N 1.642334 1.098756 -7.718120
C -3.434803 1.014421 -8.104670
H -3.841941 0.731325 -9.106763
H -3.117192 0.063407 -7.653631
H -4.270397 1.459945 -7.596949
C -2.701585 3.281493 -8.263017
H -2.862846 3.606421 -9.340375
H -3.582764 3.479661 -7.749205
H -1.881274 3.990159 -7.921646
C 1.839105 -0.117133 -8.509119
H 2.701894 -0.722813 -8.129812
H 0.975584 -0.810782 -8.364299
H 2.037350 0.008956 -9.550826
C 2.240609 2.234580 -8.500650
H 3.338649 2.248994 -8.442671
H 1.959177 2.259620 -9.499726
H 1.809961 3.226998 -8.062814



